--- Job 3A.gms Start 12/31/21 15:27:57 37.1.0 r07954d5 WEX-WEI x86 64bit/MS Windows
--- Applying:
    C:\GAMS\37\gmsprmNT.txt
--- GAMS Parameters defined
    Input C:\Users\fatma\Desktop\assignment_2019402204\3A.gms
    PageSize 0
    ScrDir C:\Users\fatma\Desktop\assignment_2019402204\225a\
    SysDir C:\GAMS\37\
    LogOption 3
    ErrMsg 1
    ErrorLog 99
    IDE 1
    LstTitleLeftAligned 1
Licensee: GAMS Demo license for FATMANUR YAMAN           G211230|0002CO-GEN
          BOGAZICI UNIVERSITY, Turkey                              DL057000
          C:\Users\fatma\Documents\GAMS\gamslice.txt
          fatmanur.yaman@boun.edu.tr, FATMANUR YAMAN                       
          Demo license for demonstration and instructional purposes only
Processor information: 1 socket(s), 6 core(s), and 12 thread(s) available
GAMS 37.1.0   Copyright (C) 1987-2021 GAMS Development. All rights reserved
--- Starting compilation
--- 3A.gms(61) 3 Mb
--- Starting execution: elapsed 0:00:00.012
--- 3A.gms(58) 4 Mb
--- Generating MIP model question
--- 3A.gms(59) 4 Mb
---   84 rows  73 columns  309 non-zeroes
---   24 discrete-columns
--- Executing CPLEX (Solvelink=2): elapsed 0:00:00.022

IBM ILOG CPLEX   37.1.0 r07954d5 Released Nov 11, 2021 WEI x86 64bit/MS Window

--- *** This solver runs with a demo license. No commercial use.

Reading parameter(s) from "C:\Users\fatma\Desktop\assignment_2019402204\cplex.opt"
>>  objrng all
>>  rhsrng all
Finished reading from "C:\Users\fatma\Desktop\assignment_2019402204\cplex.opt"

--- GMO setup time: 0.00s
--- GMO memory 0.52 Mb (peak 0.52 Mb)
--- Dictionary memory 0.00 Mb
--- Cplex 20.1.0.1 link memory 0.00 Mb (peak 0.01 Mb)
--- Starting Cplex

Version identifier: 20.1.0.1 | 2021-04-07 | 3a818710c
CPXPARAM_Advance                                 0
CPXPARAM_Threads                                 1
CPXPARAM_MIP_Display                             4
CPXPARAM_MIP_Pool_Capacity                       0
CPXPARAM_MIP_Tolerances_AbsMIPGap                0
Generic callback                                 0x50
Found incumbent of value 8400.000000 after 0.00 sec. (0.00 ticks)
Tried aggregator 1 time.
MIP Presolve eliminated 23 rows and 1 columns.
Reduced MIP has 60 rows, 72 columns, and 218 nonzeros.
Reduced MIP has 24 binaries, 0 generals, 0 SOSs, and 0 indicators.
Presolve time = 0.00 sec. (0.13 ticks)
Probing fixed 0 vars, tightened 24 bounds.
Probing time = 0.00 sec. (0.02 ticks)
Tried aggregator 1 time.
Detecting symmetries...
Reduced MIP has 60 rows, 72 columns, and 218 nonzeros.
Reduced MIP has 24 binaries, 0 generals, 0 SOSs, and 0 indicators.
Presolve time = 0.00 sec. (0.13 ticks)
Probing time = 0.00 sec. (0.01 ticks)
Clique table members: 1.
MIP emphasis: balance optimality and feasibility.
MIP search method: dynamic search.
Parallel mode: none, using 1 thread.
Tried aggregator 1 time.
No LP presolve or aggregator reductions.
Presolve time = 0.00 sec. (0.03 ticks)
Initializing dual steep norms . . .

Iteration log . . .
Iteration:     1   Dual objective     =             0.000000
Root relaxation solution time = 0.00 sec. (0.10 ticks)

        Nodes                                         Cuts/
   Node  Left     Objective  IInf  Best Integer    Best Bound    ItCnt     Gap

*     0+    0                         8400.0000        0.0000           100.00%
Found incumbent of value 8400.000000 after 0.00 sec. (0.48 ticks)
*     0     0      integral     0     7000.0000     7000.0000       20    0.00%
Elapsed time = 0.00 sec. (0.49 ticks, tree = 0.00 MB)
Found incumbent of value 7000.000000 after 0.00 sec. (0.49 ticks)

Root node processing (before b&c):
  Real time             =    0.00 sec. (0.49 ticks)
Sequential b&c:
  Real time             =    0.00 sec. (0.00 ticks)
                          ------------
Total (root+branch&cut) =    0.00 sec. (0.49 ticks)

--- MIP status (101): integer optimal solution.
--- Cplex Time: 0.00sec (det. 0.49 ticks)

--- Fixing integer variables and solving final LP...

Version identifier: 20.1.0.1 | 2021-04-07 | 3a818710c
CPXPARAM_Advance                                 2
CPXPARAM_Threads                                 1
CPXPARAM_MIP_Display                             4
CPXPARAM_MIP_Pool_Capacity                       0
CPXPARAM_MIP_Tolerances_AbsMIPGap                0
Tried aggregator 1 time.
LP Presolve eliminated 73 rows and 47 columns.
Reduced LP has 10 rows, 26 columns, and 52 nonzeros.
Presolve time = 0.00 sec. (0.05 ticks)
Initializing dual steep norms . . .

Iteration log . . .
Iteration:     1   Dual objective     =          7000.000000

--- Fixed MIP status (1): optimal.
--- Cplex Time: 0.00sec (det. 0.10 ticks)

--- Start ranging / sensitivity analysis...
--- Right-hand-side ranging...

EQUATION NAME                            LOWER           CURRENT             UPPER
-------------                            -----           -------             -----
cost                                      -INF                NA              +INF   
supply(P1)                                 290               290              +INF   
supply(P2)                                 220               220       2.00002e+07   
supply(P3)                                 180               180       2.00002e+07   
supply(P4)                                 280               280               340   
demand(D1)                                 120               180               180   
demand(D2)                        -1.99998e+07               200               200   
demand(D3)                                 100               160               160   
demand(D4)                        -1.99999e+07               140               140   
demand(D5)                                -INF               250               250   
demand(Dummy)                             -INF                40                40   
rent(P1.D1)                       -9.99975e+06             1e+07       1.00001e+07   
rent(P1.D2)                       -9.99975e+06             1e+07             3e+07   
rent(P1.D3)                       -9.99975e+06             1e+07       1.00001e+07   
rent(P1.D4)                       -9.99975e+06             1e+07             3e+07   
rent(P1.D5)                       -9.99975e+06             1e+07              +INF   
rent(P1.Dummy)                          -3e+07             1e+07              +INF   
rent(P2.D1)                       -9.99978e+06             1e+07       1.00001e+07   
rent(P2.D2)                       -9.99978e+06             1e+07       3.00001e+07   
rent(P2.D3)                       -9.99978e+06             1e+07       1.00001e+07   
rent(P2.D4)                       -9.99978e+06             1e+07              +INF   
rent(P2.D5)                             -1e+07             1e+07              +INF   
rent(P2.Dummy)                          -1e+07             1e+07       2.99998e+07   
rent(P3.D1)                       -1.99998e+07             1e+07       1.00001e+07   
rent(P3.D2)                       -2.99997e+07             1e+07              +INF   
rent(P3.D3)                       -1.99998e+07             1e+07       1.00001e+07   
rent(P3.D4)                       -1.00001e+07             1e+07              +INF   
rent(P3.D5)                             -1e+07             1e+07       2.99998e+07   
rent(P3.Dummy)                          -1e+07             1e+07       2.99998e+07   
rent(P4.D1)                       -1.99998e+07             1e+07              +INF   
rent(P4.D2)                        9.99994e+06             1e+07              +INF   
rent(P4.D3)                       -1.99998e+07             1e+07              +INF   
rent(P4.D4)                        9.99994e+06             1e+07       4.99997e+07   
rent(P4.D5)                        9.99994e+06             1e+07       2.99998e+07   
rent(P4.Dummy)                     9.99994e+06             1e+07       2.99998e+07   
invest(P1.D1)                                0                 0              +INF   
invest(P1.D2)                                0                 0              +INF   
invest(P1.D3)                                0                 0              +INF   
invest(P1.D4)                                0                 0              +INF   
invest(P1.D5)                                0                 0              +INF   
invest(P1.Dummy)                             0                 0              +INF   
invest(P2.D1)                           -1e+07                 0              +INF   
invest(P2.D2)                                0                 0              +INF   
invest(P2.D3)                           -1e+07                 0              +INF   
invest(P2.D4)                                0                 0              +INF   
invest(P2.D5)                                0                 0              +INF   
invest(P2.Dummy)                             0                 0              +INF   
invest(P3.D1)                                0                 0              +INF   
invest(P3.D2)                                0                 0              +INF   
invest(P3.D3)                                0                 0              +INF   
invest(P3.D4)                                0                 0              +INF   
invest(P3.D5)                                0                 0              +INF   
invest(P3.Dummy)                        -1e+07                 0       1.99998e+07   
invest(P4.D1)                                0                 0              +INF   
invest(P4.D2)                                0                 0              +INF   
invest(P4.D3)                                0                 0              +INF   
invest(P4.D4)                                0                 0              +INF   
invest(P4.D5)                                0                 0              +INF   
invest(P4.Dummy)                           -60                 0       1.99998e+07   
numofrent                                    4                 4              +INF   
restrict(P1.D1)                              0                 1              +INF   
restrict(P1.D2)                              0                 1              +INF   
restrict(P1.D3)                              0                 1              +INF   
restrict(P1.D4)                              0                 1              +INF   
restrict(P1.D5)                              0                 1              +INF   
restrict(P1.Dummy)                           0                 1              +INF   
restrict(P2.D1)                              0                 1              +INF   
restrict(P2.D2)                              0                 1              +INF   
restrict(P2.D3)                              0                 1              +INF   
restrict(P2.D4)                              0                 1              +INF   
restrict(P2.D5)                              0                 1              +INF   
restrict(P2.Dummy)                           0                 1              +INF   
restrict(P3.D1)                              0                 1              +INF   
restrict(P3.D2)                              0                 1              +INF   
restrict(P3.D3)                              0                 1              +INF   
restrict(P3.D4)                              0                 1              +INF   
restrict(P3.D5)                              0                 1              +INF   
restrict(P3.Dummy)                           0                 1              +INF   
restrict(P4.D1)                              0                 1              +INF   
restrict(P4.D2)                              0                 1              +INF   
restrict(P4.D3)                              0                 1              +INF   
restrict(P4.D4)                              0                 1              +INF   
restrict(P4.D5)                              0                 1              +INF   
restrict(P4.Dummy)                           0                 1              +INF   

--- Objective ranging...

VARIABLE NAME                            LOWER           CURRENT             UPPER
-------------                            -----           -------             -----
x(P1.D1)                                     0               7.5              +INF   
x(P1.D2)                                     0                 7              +INF   
x(P1.D3)                                     0                 8              +INF   
x(P1.D4)                                     0               5.5              +INF   
x(P1.D5)                                     0                 8              +INF   
x(P1.Dummy)                                  0                 0              +INF   
x(P2.D1)                                     0                 6              +INF   
x(P2.D2)                                     0               6.5              +INF   
x(P2.D3)                                     0                 7              +INF   
x(P2.D4)                                     0               7.5              +INF   
x(P2.D5)                                     0               8.5              +INF   
x(P2.Dummy)                                  0                 0              +INF   
x(P3.D1)                                     0                11              +INF   
x(P3.D2)                                     0                 6              +INF   
x(P3.D3)                                     0               6.5              +INF   
x(P3.D4)                                     0                 6              +INF   
x(P3.D5)                                     0                 7              +INF   
x(P3.Dummy)                               -INF                 0                 0   
x(P4.D1)                                     0                 9              +INF   
x(P4.D2)                                     0                 7              +INF   
x(P4.D3)                                     0                10              +INF   
x(P4.D4)                                     0                 6              +INF   
x(P4.D5)                                     0               7.5              +INF   
x(P4.Dummy)                               -INF                 0                 0   
t(P1.D1)                                  -INF                 0                 0   
t(P1.D2)                                  -INF                 0                 0   
t(P1.D3)                                  -INF                 0                 0   
t(P1.D4)                                  -INF                 0                 0   
t(P1.D5)                                     0                 0                 0   
t(P1.Dummy)                                  0                 0                 0   
t(P2.D1)                                  -INF                 0                 0   
t(P2.D2)                                  -INF                 0                 0   
t(P2.D3)                                  -INF                 0                 0   
t(P2.D4)                                     0                 0                 0   
t(P2.D5)                                     0                 0                 0   
t(P2.Dummy)                               -INF                 0                 0   
t(P3.D1)                                  -INF                 0                 0   
t(P3.D2)                                     0                 0                 0   
t(P3.D3)                                  -INF                 0                 0   
t(P3.D4)                                     0                 0                 0   
t(P3.D5)                                  -INF                 0                 0   
t(P3.Dummy)                               -INF                 0                 0   
t(P4.D1)                                     0                 0                 6   
t(P4.D2)                                     0                 0                 0   
t(P4.D3)                                     0                 0               6.5   
t(P4.D4)                                  -INF                 0                 0   
t(P4.D5)                                  -INF                 0                 0   
t(P4.Dummy)                               -INF                 0                 0   
y(P1.D1)                                  -INF              -350              +INF   
y(P1.D2)                                  -INF              -350              +INF   
y(P1.D3)                                  -INF              -350              +INF   
y(P1.D4)                                  -INF              -350              +INF   
y(P1.D5)                                  -INF              -350              +INF   
y(P1.Dummy)                               -INF              -350              +INF   
y(P2.D1)                                  -INF              -350              +INF   
y(P2.D2)                                  -INF              -350              +INF   
y(P2.D3)                                  -INF              -350              +INF   
y(P2.D4)                                  -INF              -350              +INF   
y(P2.D5)                                  -INF              -350              +INF   
y(P2.Dummy)                               -INF              -350              +INF   
y(P3.D1)                                  -INF              -350              +INF   
y(P3.D2)                                  -INF              -350              +INF   
y(P3.D3)                                  -INF              -350              +INF   
y(P3.D4)                                  -INF              -350              +INF   
y(P3.D5)                                  -INF              -350              +INF   
y(P3.Dummy)                               -INF              -350              +INF   
y(P4.D1)                                  -INF              -350              +INF   
y(P4.D2)                                  -INF              -350              +INF   
y(P4.D3)                                  -INF              -350              +INF   
y(P4.D4)                                  -INF              -350              +INF   
y(P4.D5)                                  -INF              -350              +INF   
y(P4.Dummy)                               -INF              -350              +INF   
z                                         -INF                NA              +INF   


Proven optimal solution
MIP Solution:         7000.000000    (20 iterations, 0 nodes)
Final Solve:          7000.000000    (8 iterations)

Best possible:        7000.000000
Absolute gap:            0.000000
Relative gap:            0.000000

--- Reading solution for model question
--- Executing after solve: elapsed 0:00:00.180
--- 3A.gms(60) 4 Mb
*** Status: Normal completion
--- Job 3A.gms Stop 12/31/21 15:27:57 elapsed 0:00:00.181
